NAME: I4732-n36-k3
COMMENT : (Fake et al, No of trucks: 3, Optimal value: )
TYPE : CVRP
DIMENSION : 36
EDGE_WEIGHT_TYPE : EUC_2D
CAPACITY : 37
NODE_COORD_SECTION
1 377 971
2 820 772
3 37 405
4 922 701
5 399 186
6 873 468
7 590 271
8 69 925
9 930 45
10 196 855
11 706 570
12 50 614
13 405 732
14 245 959
15 95 43
16 30 538
17 190 564
18 942 931
19 843 250
20 119 0
21 187 390
22 792 651
23 342 735
24 439 751
25 691 10
26 83 427
27 802 723
28 103 638
29 310 216
30 740 999
31 925 384
32 448 700
33 598 769
34 781 754
35 793 57
36 493 931
DEMAND_SECTION
1 0
2 4
3 3
4 2
5 3
6 4
7 1
8 5
9 1
10 4
11 1
12 3
13 4
14 4
15 3
16 1
17 1
18 5
19 2
20 3
21 2
22 3
23 5
24 4
25 1
26 5
27 5
28 2
29 3
30 1
31 2
32 2
33 1
34 2
35 3
36 5
DEPOT_SECTION
 1
 -1
 EOF 